WARNING: for repeatability, setting FPU to use double precision
============================[ Problem Statistics ]=============================
|                                                                             |
|  Number of variables:           100                                         |
|  Number of clauses:             449                                         |
|  Parse time:                   0.00 s                                       |
|  Simplification time:          0.00 s                                       |
|                                                                             |
============================[ Search Statistics ]==============================
| Conflicts |          ORIGINAL         |          LEARNT          | Progress |
|           |    Vars  Clauses Literals |    Limit  Clauses Lit/Cl |          |
===============================================================================
|       100 |     100      449     1347 |      164      100      7 |  0.010 % |
|       250 |     100      449     1347 |      181      167      6 |  0.030 % |
===============================================================================
restarts              : 4
conflicts             : 430            (94071 /sec)
decisions             : 531            (0.00 % random) (116167 /sec)
propagations          : 10130          (2216145 /sec)
conflict literals     : 2696           (20.40 % deleted)
Memory used           : 13.00 MB
CPU time              : 0.004571 s

SATISFIABLE
